NAME          
ROWS
 N  OBJ
 L  c1_1
 L  c2
 E  c1
COLUMNS
    MARKER    'MARKER'                 'INTORG'
    x[1]      c1_1      1
    x[1]      c1        1
    x[1]      OBJ       1
    x[2]      c2        4
    x[2]      c1        1
    x[2]      OBJ       1
    x[3]      c2        5
    x[3]      c1        1
    x[3]      OBJ       1
    x[4]      c1_1      1
    x[4]      OBJ       1
    x[5]      c2        -2
    x[5]      OBJ       1
RHS
    rhs       c1_1      1
    rhs       c2        1
    rhs       c1        1
RANGES
BOUNDS
 BV bounds    x[1]
 BV bounds    x[2]
 BV bounds    x[3]
 BV bounds    x[4]
 BV bounds    x[5]
ENDATA
